problems/csplib-prob015/SchursLemma-models/noch/O2/lingeling/model_1_2-5-14-solution000001.eprime-solution
language ESSENCE' 1.0

letting boxes_PartitionAsSet_ExplicitR6_ExplicitVarSizeWithDummy be
        [[1, 3, 6, 8, 10, 12, 15, 15, 15, 15, 15, 15, 15, 15; int(1..14)],
         [2, 15, 15, 15, 15, 15, 15, 15, 15, 15, 15, 15, 15, 15; int(1..14)],
         [4, 15, 15, 15, 15, 15, 15, 15, 15, 15, 15, 15, 15, 15; int(1..14)],
         [5, 7, 15, 15, 15, 15, 15, 15, 15, 15, 15, 15, 15, 15; int(1..14)],
         [9, 11, 13, 14, 15, 15, 15, 15, 15, 15, 15, 15, 15, 15; int(1..14)]; int(1..5)]
