problems/csplib-prob015/SchursLemma-models/noch/O2/lingeling/model_1_2-5-14-solution000001.solution
language Essence 1.3

letting boxes be partition({1, 3, 6, 8, 10, 12}, {2}, {4}, {5, 7}, {9, 11, 13, 14})
